GLPSOL--GLPK LP/MIP Solver 5.0
Parameter(s) specified in the command line:
 --lp ../modeles/5_154.lp --log 5_154.log
Reading problem data from '../modeles/5_154.lp'...
791 rows, 1550 columns, 5405 non-zeros
770 integer variables, all of which are binary
2352 lines were read
GLPK Integer Optimizer 5.0
791 rows, 1550 columns, 5405 non-zeros
770 integer variables, all of which are binary
Preprocessing...
770 constraint coefficient(s) were reduced
791 rows, 1545 columns, 5400 non-zeros
770 integer variables, all of which are binary
Scaling...
 A: min|aij| =  6.747e-04  max|aij| =  4.000e+00  ratio =  5.929e+03
GM: min|aij| =  1.140e-01  max|aij| =  8.775e+00  ratio =  7.700e+01
EQ: min|aij| =  1.299e-02  max|aij| =  1.000e+00  ratio =  7.700e+01
2N: min|aij| =  1.079e-02  max|aij| =  1.762e+00  ratio =  1.633e+02
Constructing initial basis...
Size of triangular part is 791
Solving LP relaxation...
GLPK Simplex Optimizer 5.0
791 rows, 1545 columns, 5400 non-zeros
      0: obj =   1.000000000e+01 inf =   2.450e+01 (11)
    104: obj =   3.108495739e-01 inf =   0.000e+00 (0)
*   318: obj =  -2.235435993e+00 inf =   1.804e-15 (0)
OPTIMAL LP SOLUTION FOUND
Integer optimization begins...
Long-step dual simplex will be used
+   318: mip =     not found yet >=              -inf        (1; 0)
+   408: >>>>>  -2.235435993e+00 >=  -2.235435993e+00 < 0.1% (88; 0)
+   408: mip =  -2.235435993e+00 >=     tree is empty   0.0% (0; 175)
INTEGER OPTIMAL SOLUTION FOUND
Time used:   0.1 secs
Memory used: 2.3 Mb (2378027 bytes)
